
List of user-set options:

                                    Name   Value                used
                           compl_inf_tol = 1                     yes
                         constr_viol_tol = 1                     yes
                            dual_inf_tol = 1000                  yes
                           linear_solver = ma97                  yes
                              ma86_small = 1e-30                  no
                                  ma86_u = 0.0001                 no
                              ma97_order = best                  yes
                              ma97_small = 1e-30                 yes
                            ma97_switch1 = at_start              yes
                            ma97_switch2 = od_hd_reuse           yes
                                  ma97_u = 1e-06                 yes
                               ma97_umax = 0.5                   yes
                                max_iter = 1000                  yes
                    max_refinement_steps = 20                    yes
                    min_refinement_steps = 5                     yes
                                 mu_init = 1e-06                 yes
           mu_superlinear_decrease_power = 1.25                  yes
                   nlp_scaling_min_value = 1e-08                 yes
                        option_file_name = Preset_Case:_733_NCP.opt  yes
                             output_file = ./tmp/Preset_Case:_733_NCP.output  yes
                      print_user_options = yes                   yes
        required_infeasibility_reduction = 1                      no
                                     tol = 1e-08                 yes
                   warm_start_bound_frac = 1e-20                 yes
                   warm_start_bound_push = 1e-20                 yes
                   warm_start_init_point = yes                   yes
              warm_start_mult_bound_push = 1e-20                 yes
                warm_start_mult_init_max = 1e+40                 yes
             warm_start_slack_bound_frac = 1e-20                 yes
             warm_start_slack_bound_push = 1e-20                 yes

******************************************************************************
This program contains Ipopt, a library for large-scale nonlinear optimization.
 Ipopt is released as open source code under the Eclipse Public License (EPL).
         For more information visit http://projects.coin-or.org/Ipopt
******************************************************************************

This is Ipopt version 3.12.10, running with linear solver ma97.

Number of nonzeros in equality constraint Jacobian...:   117167
Number of nonzeros in inequality constraint Jacobian.:      213
Number of nonzeros in Lagrangian Hessian.............:    47513

Total number of variables............................:    29977
                     variables with only lower bounds:    11312
                variables with lower and upper bounds:    15135
                     variables with only upper bounds:        0
Total number of equality constraints.................:    29864
Total number of inequality constraints...............:       25
        inequality constraints with only lower bounds:        4
   inequality constraints with lower and upper bounds:        0
        inequality constraints with only upper bounds:       21

iter    objective    inf_pr   inf_du lg(mu)  ||d||  lg(rg) alpha_du alpha_pr  ls
   0 -1.7357126e-01 1.29e-01 2.00e+00  -6.0 0.00e+00    -  0.00e+00 0.00e+00   0
In iteration 0, 8 Slacks too small, adjusting variable bounds
   1 -1.7357126e-01 1.29e-01 4.12e+02  -6.0 1.11e+10    -  4.12e-14 4.04e-19h  1
   2 -1.7357013e-01 1.29e-01 4.13e+02  -6.0 4.65e+01    -  1.00e-02 3.58e-05f  1
   3 -1.7356876e-01 1.28e-01 4.14e+02  -6.0 4.15e+01    -  1.88e-02 4.54e-05h  1
   4 -1.7262382e-01 1.24e-01 4.58e+02  -6.0 4.13e+01    -  2.75e-02 3.12e-02h  1
   5 -1.7069817e-01 1.17e-01 4.25e+02  -6.0 9.25e+01    -  1.12e-01 6.22e-02h  2
   6 -1.6916342e-01 1.10e-01 4.00e+02  -6.0 3.84e+01    -  6.35e-02 5.49e-02h  2
   7 -1.6801136e-01 1.05e-01 3.95e+02  -6.0 3.73e+01    -  2.24e-01 4.55e-02h  2
   8 -1.6553390e-01 9.52e-02 3.56e+02  -6.0 5.33e+01    -  1.31e-01 9.65e-02H  1
   9 -1.6385212e-01 8.79e-02 1.11e+04  -6.0 4.16e+01    -  1.32e-01 7.66e-02h  3
iter    objective    inf_pr   inf_du lg(mu)  ||d||  lg(rg) alpha_du alpha_pr  ls
  10 -1.6234610e-01 8.13e-02 2.71e+04  -6.0 4.16e+01    -  1.85e-01 7.44e-02h  2
  11 -1.6070623e-01 7.51e-02 4.71e+04  -6.0 3.98e+01    -  3.27e-01 9.15e-02h  3
  12 -1.5399099e-01 1.30e-01 5.38e+02  -6.0 3.78e+01    -  4.42e-02 4.78e-01H  1
  13r-1.5399099e-01 1.30e-01 1.00e+03  -1.1 0.00e+00    -  0.00e+00 4.04e-07R  5
  14r-1.5426199e-01 1.28e-01 1.00e+03  -1.1 5.31e+04    -  1.13e-05 1.93e-05f  1
  15 -1.5425396e-01 1.27e-01 7.10e+06  -6.0 1.79e+01    -  7.31e-02 1.47e-03h  1
  16 -1.5381735e-01 1.20e-01 4.08e+08  -6.0 1.98e+01    -  1.47e-03 8.30e-02h  1
  17 -1.5380798e-01 1.20e-01 4.07e+08  -6.0 1.83e+01    -  8.62e-02 2.23e-03h  1
  18 -1.5310595e-01 1.11e-01 3.39e+08  -6.0 1.91e+01    -  2.06e-01 1.67e-01h  1
  19 -1.5247923e-01 9.96e-02 2.41e+08  -6.0 2.21e+01    -  7.69e-02 2.90e-01H  1
iter    objective    inf_pr   inf_du lg(mu)  ||d||  lg(rg) alpha_du alpha_pr  ls
  20 -1.5267147e-01 9.60e-02 2.29e+08  -6.0 6.27e+01    -  3.57e-02 5.04e-02h  2
  21 -1.5275945e-01 9.36e-02 2.22e+08  -6.0 4.93e+01    -  4.96e-02 3.16e-02h  4
  22 -1.5286016e-01 9.10e-02 2.14e+08  -6.0 4.78e+01    -  8.90e-03 3.63e-02h  4
  23 -1.5290239e-01 8.94e-02 2.09e+08  -6.0 4.17e+01    -  8.96e-02 2.03e-02h  5
  24 -1.5295641e-01 8.75e-02 2.04e+08  -6.0 4.06e+01    -  2.32e-02 2.54e-02h  5
  25 -1.5301439e-01 8.54e-02 1.98e+08  -6.0 3.89e+01    -  7.25e-02 2.83e-02h  5
  26 -1.5315378e-01 8.16e-02 1.85e+08  -6.0 2.91e+01    -  1.23e-01 6.86e-02h  2
  27 -1.5322102e-01 7.92e-02 1.78e+08  -6.0 2.91e+01    -  7.53e-02 3.50e-02h  4
  28 -1.5338403e-01 7.49e-02 1.63e+08  -6.0 2.20e+01    -  1.11e-01 8.31e-02h  1
  29 -1.5344807e-01 7.34e-02 1.57e+08  -6.0 2.57e+01    -  4.30e-01 3.64e-02h  5
iter    objective    inf_pr   inf_du lg(mu)  ||d||  lg(rg) alpha_du alpha_pr  ls
  30 -1.5359759e-01 7.26e-02 1.47e+08  -6.0 2.30e+01    -  6.31e-01 6.29e-02h  4
  31 -1.5418122e-01 9.69e-02 1.37e+08  -6.0 3.25e+01    -  1.25e-01 7.23e-02h  3
  32 -1.5500538e-01 9.65e-02 1.20e+08  -6.0 1.08e+01  -2.0 4.64e-01 1.25e-01h  1
  33 -1.6078465e-01 4.67e-02 6.01e+03  -6.0 1.08e+01  -2.5 1.76e-01 1.00e+00H  1
  34 -1.6112082e-01 4.22e-04 2.44e+02  -6.0 1.46e-01  -3.0 4.87e-01 1.00e+00h  1
  35 -1.6408491e-01 2.14e-02 7.30e+00  -6.0 9.01e+00    -  8.92e-01 1.00e+00h  1
  36 -1.7097966e-01 1.09e-01 6.45e+00  -6.0 5.48e+01    -  5.39e-01 4.44e-01H  1
  37 -1.7296195e-01 1.38e-01 9.68e+00  -6.0 7.11e+01    -  6.15e-01 1.14e-01h  1
  38 -1.7638589e-01 3.00e-01 1.56e+01  -6.0 1.07e+02    -  5.47e-01 1.35e-01h  1
  39 -1.8575213e-01 1.45e+00 3.05e+01  -6.0 2.23e+02    -  1.51e-01 3.51e-01h  1
iter    objective    inf_pr   inf_du lg(mu)  ||d||  lg(rg) alpha_du alpha_pr  ls
  40 -1.8778206e-01 1.27e+00 2.36e+01  -6.0 2.41e+02    -  4.77e-01 1.26e-01h  1
  41 -1.8799123e-01 1.25e+00 2.71e+01  -6.0 3.73e+02    -  7.52e-01 1.50e-02h  1
  42 -1.8797740e-01 1.19e+00 2.70e+01  -6.0 6.56e-01  -3.4 1.18e-01 4.48e-02h  1
  43 -1.8758969e-01 3.71e-01 9.13e+00  -6.0 8.25e-01  -3.9 5.84e-01 6.89e-01h  1
  44 -1.8762699e-01 3.13e-01 3.16e+01  -6.0 1.16e+00  -4.4 8.91e-01 1.57e-01h  1
  45 -1.8817730e-01 1.06e-01 1.37e+01  -6.0 3.15e+00  -4.9 1.00e+00 7.51e-01h  1
  46 -1.8827819e-01 9.99e-02 1.35e+01  -6.0 5.34e+00  -5.3 5.11e-03 6.53e-02h  1
  47 -1.8897503e-01 1.33e-01 1.25e+01  -6.0 1.34e+01  -5.8 7.50e-02 2.17e-01f  1
  48 -1.8976742e-01 1.77e-01 3.59e+01  -6.0 2.91e+01  -6.3 8.58e-01 1.51e-01h  1
  49 -1.9033997e-01 2.24e-01 1.82e+01  -6.0 3.61e+01  -6.8 1.00e+00 1.15e-01h  1
iter    objective    inf_pr   inf_du lg(mu)  ||d||  lg(rg) alpha_du alpha_pr  ls
  50 -1.9270932e-01 1.61e+00 1.46e+01  -6.0 7.85e+01  -7.2 1.00e+00 4.12e-01h  1
  51 -1.9324849e-01 2.74e+00 2.02e+01  -6.0 5.69e+01  -6.8 4.51e-01 1.28e-01h  1
  52 -1.9406296e-01 1.61e+00 1.66e+01  -6.0 2.43e+02  -7.3 1.44e-01 4.22e-01h  1
  53 -1.9466847e-01 1.48e+00 1.31e+01  -6.0 2.41e+02  -7.8 3.81e-01 1.23e-01h  1
  54 -1.9733708e-01 2.95e+00 5.62e+01  -6.0 1.55e+03  -8.3 3.21e-01 1.24e-01h  1
  55 -1.9747169e-01 2.90e+00 5.26e+01  -6.0 3.56e+02  -7.8 4.75e-01 1.91e-02h  1
  56 -1.9875744e-01 3.63e+00 1.09e+02  -6.0 2.73e+03  -8.3 3.82e-01 4.95e-02h  1
  57 -2.0124756e-01 3.35e+00 4.79e+01  -6.0 2.47e+02  -7.9 5.69e-01 4.58e-01h  1
  58 -2.0340405e-01 5.85e+00 2.05e+01  -6.0 1.20e+03  -8.4 4.70e-01 2.58e-01h  1
  59 -2.0582858e-01 1.00e+01 2.48e+01  -6.0 5.15e+02  -7.9 1.78e-01 4.41e-01h  1
iter    objective    inf_pr   inf_du lg(mu)  ||d||  lg(rg) alpha_du alpha_pr  ls
  60 -2.0705337e-01 7.56e+00 2.59e+01  -6.0 4.89e+02  -8.4 8.23e-01 2.70e-01h  1
  61 -2.0952841e-01 4.10e+00 3.54e+01  -6.0 4.60e+02  -8.0 2.71e-01 8.71e-01h  1
  62 -2.1023205e-01 4.42e+00 5.02e+01  -6.0 1.68e+02  -7.6 1.36e-01 3.57e-01h  1
  63 -2.1059063e-01 4.03e+00 4.68e+01  -6.0 2.41e+02  -8.0 3.80e-01 1.02e-01h  1
  64 -2.1110476e-01 3.71e+00 5.36e+01  -6.0 6.54e+02  -8.5 4.01e-01 7.89e-02h  1
  65 -2.1292029e-01 1.38e+00 1.55e+01  -6.0 2.21e+02  -8.1 1.00e+00 6.49e-01h  1
  66 -2.1307798e-01 1.35e+00 2.66e+01  -6.0 7.13e+02  -8.6 1.08e-01 2.44e-02h  1
  67 -2.1293991e-01 5.84e-01 2.47e+03  -6.0 3.21e+01  -6.3 4.33e-03 5.67e-01h  1
  68 -2.1321384e-01 3.34e-01 6.83e+02  -6.0 2.30e+01  -6.8 1.00e+00 7.27e-01h  1
  69 -2.1359625e-01 2.09e-01 2.97e+01  -6.0 4.29e+01  -7.3 2.51e-01 1.00e+00h  1
iter    objective    inf_pr   inf_du lg(mu)  ||d||  lg(rg) alpha_du alpha_pr  ls
  70 -2.1374740e-01 2.33e-01 9.07e+00  -6.0 2.37e+01  -6.9 5.26e-01 1.00e+00h  1
  71 -2.1412318e-01 4.54e+00 4.91e+01  -6.0 5.84e+02  -7.3 9.07e-02 1.90e-01h  1
  72 -2.1471850e-01 2.81e+00 3.36e+01  -6.0 8.26e+01  -6.9 6.08e-01 5.02e-01h  1
  73 -2.1691784e-01 5.67e+00 7.14e+00  -6.0 1.32e+02  -7.4 7.65e-01 1.00e+00h  1
  74 -2.1728559e-01 3.77e+00 2.10e+01  -6.0 1.17e+02  -7.0 9.06e-01 4.34e-01h  1
  75 -2.1760255e-01 4.28e-01 8.59e-01  -6.0 4.95e+01  -7.4 1.00e+00 8.91e-01h  1
  76 -2.1953714e-01 3.93e-01 4.27e+00  -6.0 1.46e+02  -7.9 1.00e+00 1.00e+00h  1
  77 -2.2021078e-01 4.28e-01 3.14e+01  -6.0 4.22e+02  -8.4 5.81e-01 1.82e-01h  1
  78 -2.2129199e-01 1.60e+00 3.09e+03  -6.0 1.73e+03  -8.9 3.42e-01 1.53e-01h  1
  79 -2.2322658e-01 1.65e+00 1.68e+03  -6.0 3.99e+02  -8.4 6.16e-01 5.52e-01h  1
iter    objective    inf_pr   inf_du lg(mu)  ||d||  lg(rg) alpha_du alpha_pr  ls
  80 -2.2498323e-01 5.62e+00 6.61e+03  -6.0 2.22e+03  -8.9 3.89e-01 2.13e-01h  1
  81 -2.2692719e-01 3.39e+00 4.93e+03  -6.0 4.36e+02  -8.5 2.14e-01 6.97e-01h  1
  82 -2.2728233e-01 3.34e+00 5.92e+03  -6.0 1.59e+03  -9.0 1.50e-01 5.41e-02h  1
  83 -2.2872328e-01 2.88e+00 9.81e+06  -6.0 4.92e+02  -8.5 2.35e-03 5.79e-01h  1
  84 -2.3029558e-01 4.45e+00 5.54e+06  -6.0 1.39e+03  -9.0 2.68e-01 4.35e-01h  1
  85 -2.3169825e-01 3.11e+00 6.28e+03  -6.0 5.50e+02  -8.6 3.29e-02 1.00e+00h  1
Error in an AMPL evaluation. Run with "halt_on_ampl_error yes" to see details.
Warning: Cutting back alpha due to evaluation error
  86 -2.3190545e-01 2.83e+00 5.64e+03  -6.0 3.61e+02  -8.2 1.60e-01 9.26e-02h  2
Error in an AMPL evaluation. Run with "halt_on_ampl_error yes" to see details.
Warning: Cutting back alpha due to evaluation error
  87 -2.3211799e-01 2.76e+00 4.77e+03  -6.0 2.65e+03  -8.6 2.46e-01 2.52e-02h  2
  88 -2.3291786e-01 1.82e+00 2.75e+03  -6.0 4.21e+02  -8.2 6.48e-01 4.27e-01h  1
  89 -2.3371873e-01 1.85e+00 1.65e+03  -6.0 1.92e+02  -7.8 4.98e-02 7.88e-01h  1
iter    objective    inf_pr   inf_du lg(mu)  ||d||  lg(rg) alpha_du alpha_pr  ls
  90 -2.3423222e-01 1.51e+00 7.30e+02  -6.0 1.02e+02  -7.4 1.00e+00 4.64e-01h  1
  91 -2.3423271e-01 1.49e+00 7.25e+02  -6.0 4.03e-01   0.5 7.46e-03 8.28e-03h  1
  92 -2.3422960e-01 1.44e+00 7.16e+02  -6.0 4.02e-01  -0.0 4.83e-03 3.83e-02h  1
  93 -2.3422554e-01 1.40e+00 6.97e+02  -6.0 3.89e-01  -0.5 2.62e-02 2.70e-02h  1
  94 -2.3421844e-01 1.33e+00 6.45e+02  -6.0 3.85e-01  -1.0 8.13e-02 4.98e-02h  1
  95 -2.3420775e-01 1.22e+00 5.40e+02  -6.0 3.85e-01  -1.4 1.84e-01 8.37e-02h  1
  96 -2.3415400e-01 6.65e-01 2.23e+02  -6.0 3.58e-01  -1.9 6.27e-01 4.55e-01h  1
  97 -2.3409213e-01 3.58e-03 5.03e+02  -6.0 2.06e-01  -2.4 2.12e-02 1.00e+00h  1
  98 -2.3410912e-01 8.54e-05 5.62e+01  -6.0 7.82e-02  -2.9 6.75e-01 1.00e+00h  1
  99 -2.3417216e-01 5.56e-04 8.28e+00  -6.0 1.16e-01  -3.3 8.60e-01 1.00e+00h  1
iter    objective    inf_pr   inf_du lg(mu)  ||d||  lg(rg) alpha_du alpha_pr  ls
 100 -2.3419998e-01 5.80e-04 2.04e+01  -6.0 4.01e-01  -3.8 9.90e-02 2.65e-01h  1
 101 -2.3422353e-01 6.12e-04 1.02e+01  -6.0 7.30e-01  -4.3 6.58e-01 1.61e-01f  1
 102 -2.3427925e-01 6.85e-03 1.48e+01  -6.0 1.04e+00  -4.8 1.00e+00 2.98e-01f  1
 103 -2.3437560e-01 3.24e-02 7.27e+00  -6.0 1.95e+00  -5.2 1.85e-01 2.79e-01f  1
 104 -2.3444826e-01 2.67e-02 2.75e+01  -6.0 2.57e+00  -5.7 1.00e+00 2.33e-01f  1
 105 -2.3473583e-01 5.33e-02 3.35e+01  -6.0 4.85e+00  -6.2 1.00e+00 9.57e-01f  1
 106 -2.3520089e-01 1.35e-01 9.58e+01  -6.0 3.03e+01  -6.7 3.04e-01 1.95e-01h  1
 107 -2.3538069e-01 2.62e-02 5.78e+01  -6.0 2.53e+01  -7.2 1.11e-01 1.00e+00f  1
 108 -2.3584391e-01 1.60e-01 3.40e+01  -6.0 5.20e+01  -7.6 6.70e-01 1.00e+00h  1
 109 -2.3594112e-01 1.66e-01 4.17e+01  -6.0 1.45e+02  -8.1 7.42e-01 1.15e-01h  1
iter    objective    inf_pr   inf_du lg(mu)  ||d||  lg(rg) alpha_du alpha_pr  ls
 110 -2.3680350e-01 1.81e-01 4.36e+01  -6.0 2.50e+02  -8.6 2.67e-01 3.76e-01h  1
 111 -2.3685795e-01 2.86e-01 4.26e+01  -6.0 1.20e+04  -9.1 3.57e-03 4.86e-03h  1
 112 -2.3771286e-01 3.55e-01 3.30e+01  -6.0 1.88e+03  -9.5 1.74e-01 1.56e-01h  1
 113 -2.3838695e-01 5.15e-01 2.95e+01  -6.0 3.46e+03 -10.0 8.86e-02 8.50e-02h  1
 114 -2.4122667e-01 7.08e+00 6.57e+01  -6.0 5.54e+03  -9.6 5.32e-02 2.35e-01h  1
 115 -2.4210677e-01 5.48e+00 1.12e+02  -6.0 1.36e+03 -10.1 1.38e-01 2.24e-01h  1
 116 -2.4312339e-01 4.93e+00 1.80e+02  -6.0 2.11e+03 -10.5 4.73e-02 1.78e-01h  1
 117 -2.4405023e-01 4.60e+00 3.98e+01  -6.0 4.43e+03 -11.0 2.74e-01 1.98e-01h  1
 118 -2.4450404e-01 3.73e+00 3.89e+02  -6.0 6.59e+02  -9.7 5.28e-01 2.05e-01h  1
 119 -2.4523978e-01 2.86e+00 2.30e+02  -6.0 1.79e+03 -10.2 2.66e-01 2.98e-01h  1
iter    objective    inf_pr   inf_du lg(mu)  ||d||  lg(rg) alpha_du alpha_pr  ls
 120 -2.4593427e-01 4.77e+00 1.19e+02  -6.0 1.08e+04 -10.7 1.16e-01 1.52e-01h  1
 121 -2.4622164e-01 4.65e+00 1.11e+02  -6.0 3.29e+03 -10.2 2.44e-02 1.06e-01h  1
 122 -2.4683635e-01 1.27e+01 1.07e+02  -6.0 8.56e+03  -9.8 1.17e-02 1.01e-01h  1
 123 -2.4787140e-01 1.38e+01 6.09e+02  -6.0 1.41e+03  -9.4 2.33e-01 3.87e-01h  1
 124 -2.4954849e-01 3.88e+00 4.53e+03  -6.0 4.11e+02  -8.9 7.06e-02 9.69e-01h  1
 125 -2.5071042e-01 8.52e+00 4.97e+03  -6.0 4.16e+03  -9.4 8.48e-02 1.24e-01h  1
 126 -2.5202752e-01 7.93e+00 1.15e+04  -6.0 8.28e+02  -9.0 1.15e-01 4.87e-01h  1
 127 -2.5367309e-01 1.59e+01 1.38e+04  -6.0 5.52e+03  -9.5 4.74e-02 1.15e-01h  1
 128 -2.5433473e-01 1.44e+01 1.59e+04  -6.0 1.28e+03  -9.0 8.71e-02 1.54e-01h  1
 129 -2.5571833e-01 1.86e+01 1.67e+04  -6.0 6.38e+03  -9.5 4.98e-02 7.48e-02h  1
iter    objective    inf_pr   inf_du lg(mu)  ||d||  lg(rg) alpha_du alpha_pr  ls
 130 -2.5587706e-01 1.85e+01 1.53e+04  -6.0 8.62e+03 -10.0 5.03e-02 1.22e-02h  1
 131 -2.5627062e-01 1.46e+01 1.43e+04  -6.0 1.80e+03  -9.6 1.78e-01 2.10e-01h  1
 132 -2.5679854e-01 1.17e+01 6.85e+06  -6.0 2.02e+03 -10.1 9.99e-04 2.05e-01h  1
 133 -2.5683645e-01 1.14e+01 6.73e+06  -6.0 4.05e+03 -10.5 1.19e-01 1.77e-02h  1
 134 -2.5725776e-01 6.23e+00 8.83e+04  -6.0 6.25e+02  -9.2 2.12e-01 9.87e-01h  1
 135 -2.5732478e-01 4.93e+00 6.88e+04  -6.0 5.63e+02  -9.7 2.87e-02 2.21e-01h  1
 136 -2.5733910e-01 4.81e+00 6.70e+04  -6.0 2.64e+03 -10.2 1.33e-05 2.59e-02h  1
 137 -2.5733942e-01 4.81e+00 6.70e+04  -6.0 3.67e+06  -9.7 5.83e-05 6.17e-06f  2
 138 -2.5746004e-01 3.90e+00 5.21e+04  -6.0 8.08e+02 -10.2 3.00e-01 2.22e-01h  1
Error in an AMPL evaluation. Run with "halt_on_ampl_error yes" to see details.
Warning: Cutting back alpha due to evaluation error
 139 -2.5746033e-01 3.90e+00 5.21e+04  -6.0 9.41e+04 -10.7 2.53e-04 1.45e-03h  2
iter    objective    inf_pr   inf_du lg(mu)  ||d||  lg(rg) alpha_du alpha_pr  ls
 140 -2.5746034e-01 3.90e+00 5.21e+04  -6.0 1.10e+04 -10.3 4.00e-02 2.41e-05h  2
Error in an AMPL evaluation. Run with "halt_on_ampl_error yes" to see details.
Warning: Cutting back alpha due to evaluation error
 141 -2.5745946e-01 3.88e+00 5.18e+04  -6.0 6.01e+04 -10.7 2.54e-03 5.36e-03h  2
Error in an AMPL evaluation. Run with "halt_on_ampl_error yes" to see details.
Warning: Cutting back alpha due to evaluation error
 142 -2.5745754e-01 8.80e+00 5.11e+04  -6.0 5.50e+04 -11.2 4.80e-02 1.35e-02h  2
 143 -2.5742362e-01 5.27e+01 5.03e+04  -6.0 1.20e+05 -11.7 2.55e-02 1.55e-02h  1
 144 -2.5741522e-01 5.41e+01 5.03e+04  -6.0 4.78e+05    -  2.78e-03 7.31e-04h  2
 145 -2.5741516e-01 5.41e+01 5.03e+04  -6.0 6.15e+04 -11.3 2.80e-02 4.62e-05h  2
 146 -2.5741491e-01 5.41e+01 5.02e+04  -6.0 6.41e+04    -  5.13e-03 8.49e-04h  3
 147 -2.5741376e-01 5.39e+01 5.00e+04  -6.0 2.74e+04    -  5.19e-03 4.80e-03h  2
 148 -2.5741457e-01 5.38e+01 4.99e+04  -6.0 5.48e+04    -  7.09e-03 1.84e-03h  4
 149 -2.5741847e-01 5.33e+01 4.94e+04  -6.0 2.50e+04    -  7.14e-03 1.01e-02h  2
iter    objective    inf_pr   inf_du lg(mu)  ||d||  lg(rg) alpha_du alpha_pr  ls
 150 -2.5743899e-01 5.00e+01 4.63e+04  -6.0 8.71e+03    -  4.31e-02 6.27e-02h  1
 151 -2.5750281e-01 4.86e+01 4.49e+04  -6.0 2.48e+04    -  1.39e-02 2.99e-02h  1
 152 -2.5750279e-01 4.86e+01 4.49e+04  -6.0 1.48e+05    -  1.59e-02 1.80e-04h  1
 153 -2.5749904e-01 4.87e+01 4.48e+04  -6.0 6.99e+04 -10.8 3.85e-03 2.33e-03h  2
 154 -2.5749902e-01 4.87e+01 4.48e+04  -6.0 4.80e+04 -10.4 2.18e-02 2.99e-05h  2
 155 -2.5749853e-01 4.87e+01 4.48e+04  -6.0 1.12e+05 -10.9 1.28e-02 1.60e-04h  2
 156 -2.5749685e-01 4.87e+01 4.47e+04  -6.0 5.35e+04 -10.5 7.22e-04 1.35e-03h  2
 157 -2.5749489e-01 4.87e+01 4.46e+04  -6.0 3.94e+04 -10.9 6.06e-02 1.74e-03h  2
 158 -2.5751577e-01 4.80e+01 4.41e+04  -6.0 9.25e+03 -10.5 2.28e-03 1.28e-02h  1
 159 -2.5752449e-01 4.78e+01 4.39e+04  -6.0 3.39e+04 -11.0 2.26e-03 4.37e-03h  1
iter    objective    inf_pr   inf_du lg(mu)  ||d||  lg(rg) alpha_du alpha_pr  ls
 160 -2.5752949e-01 4.78e+01 4.38e+04  -6.0 4.96e+04 -10.6 2.34e-04 5.17e-04h  1
 161 -2.5752957e-01 4.78e+01 4.38e+04  -6.0 1.30e+06 -11.0 6.87e-04 5.22e-05f  2
 162 -2.5754480e-01 4.75e+01 4.36e+04  -6.0 1.30e+04 -10.6 1.11e-02 5.78e-03h  1
 163 -2.5754441e-01 4.75e+01 4.36e+04  -6.0 1.57e+05 -11.1 1.61e-04 4.69e-04h  2
 164 -2.5754317e-01 4.75e+01 4.36e+04  -6.0 6.84e+06 -11.6 6.71e-05 7.49e-06h  2
 165 -2.5754143e-01 4.75e+01 4.35e+04  -6.0 1.46e+05 -11.1 3.82e-03 9.39e-04h  2
 166 -2.5754284e-01 4.74e+01 4.34e+04  -6.0 7.53e+04 -10.7 9.42e-03 1.90e-03h  3
 167 -2.5755117e-01 4.71e+01 4.32e+04  -6.0 1.88e+04 -10.3 4.23e-02 5.43e-03h  1
 168 -2.5753263e-01 4.64e+01 4.26e+04  -6.0 7.29e+04 -10.8 1.46e-02 1.50e-02h  2
 169 -2.5753077e-01 4.63e+01 4.24e+04  -6.0 1.90e+04 -10.3 3.08e-02 3.15e-03h  2
iter    objective    inf_pr   inf_du lg(mu)  ||d||  lg(rg) alpha_du alpha_pr  ls
 170 -2.5750089e-01 4.58e+01 4.20e+04  -6.0 9.58e+04 -10.8 3.37e-02 1.04e-02h  2
 171 -2.5747847e-01 4.55e+01 4.17e+04  -6.0 8.06e+04    -  3.58e-02 7.05e-03h  1
 172 -2.5747869e-01 4.53e+01 4.16e+04  -6.0 7.57e+03    -  2.35e-02 3.12e-03h  1
 173 -2.5748405e-01 4.26e+01 3.91e+04  -6.0 6.71e+03    -  1.28e-02 5.97e-02h  1
 174 -2.5748605e-01 4.14e+01 3.80e+04  -6.0 3.23e+03  -9.5 1.29e-01 2.89e-02h  1
 175 -2.5749352e-01 3.97e+01 3.64e+04  -6.0 4.45e+03 -10.0 1.79e-01 4.15e-02h  1
 176 -2.5756560e-01 3.18e+01 2.91e+04  -6.0 4.67e+03    -  2.07e-01 1.99e-01h  1
 177 -2.5756548e-01 3.16e+01 2.89e+04  -6.0 3.97e+02  -4.1 2.29e-06 6.92e-03h  1
 178 -2.5756593e-01 3.07e+01 2.82e+04  -6.0 3.20e+00  -4.6 8.79e-03 2.66e-02h  1
 179 -2.5758066e-01 2.75e+01 2.52e+04  -6.0 6.32e+03    -  3.90e-04 1.04e-01f  1
iter    objective    inf_pr   inf_du lg(mu)  ||d||  lg(rg) alpha_du alpha_pr  ls
 180 -2.5758356e-01 2.65e+01 2.43e+04  -6.0 3.15e+03  -4.2 1.47e-07 3.69e-02h  1
 181 -2.5758710e-01 2.44e+01 2.24e+04  -6.0 2.69e+00  -4.7 5.43e-02 7.74e-02f  1
 182 -2.5758730e-01 2.44e+01 2.24e+04  -6.0 3.58e+01  -5.1 1.70e-04 3.31e-04h  1
 183 -2.5758731e-01 2.44e+01 2.24e+04  -6.0 1.87e+02  -4.7 8.98e-07 2.78e-06f  2
 184 -2.5758731e-01 2.44e+01 2.24e+04  -6.0 4.42e+00  -3.4 8.05e-02 1.08e-04h  1
 185 -2.5757922e-01 1.59e+01 1.46e+04  -6.0 2.48e+00  -3.9 2.21e-01 3.49e-01f  1
 186 -2.5757247e-01 1.24e+01 1.14e+04  -6.0 1.61e+00  -4.3 2.53e-01 2.18e-01h  1
 187 -2.5752788e-01 1.77e-03 6.72e+00  -6.0 1.26e+00  -4.8 1.00e+00 1.00e+00h  1
 188 -2.5754733e-01 5.47e-04 7.76e+00  -6.0 1.68e+00  -5.3 3.89e-01 8.49e-01h  1
 189 -2.5752600e-01 4.72e-04 2.82e+00  -6.0 1.13e+00  -5.8 1.00e+00 7.55e-01f  1
iter    objective    inf_pr   inf_du lg(mu)  ||d||  lg(rg) alpha_du alpha_pr  ls
 190 -2.5750787e-01 3.48e-04 8.59e-02  -6.0 3.29e+00  -6.2 1.00e+00 1.00e+00f  1
 191 -2.5750673e-01 5.49e-04 1.91e-01  -6.0 5.79e+00  -6.7 1.00e+00 1.00e+00h  1
 192 -2.5750301e-01 1.78e-03 3.40e-01  -6.0 1.06e+01  -7.2 1.00e+00 1.00e+00h  1
 193 -2.5749825e-01 4.50e-03 6.80e-01  -6.0 1.49e+01  -7.7 1.00e+00 1.00e+00h  1
 194 -2.5749124e-01 5.62e-04 1.59e-01  -6.0 7.23e+00  -7.2 1.00e+00 1.00e+00h  1
 195 -2.5749275e-01 7.48e-04 2.64e-01  -6.0 8.15e+01  -7.7 2.79e-01 8.57e-02h  2
 196 -2.5749345e-01 9.21e-04 1.72e+00  -6.0 1.65e+02  -7.3 1.42e-01 2.12e-02h  2
 197 -2.5748557e-01 1.33e-03 4.50e+00  -6.0 5.77e+00  -6.9 1.00e+00 6.05e-01h  1
 198 -2.5748881e-01 5.24e-04 4.82e-02  -6.0 3.93e+00  -7.3 1.00e+00 1.00e+00f  1
 199 -2.5747580e-01 1.47e-03 3.04e-01  -6.0 8.28e+00  -7.8 1.00e+00 1.00e+00h  1
iter    objective    inf_pr   inf_du lg(mu)  ||d||  lg(rg) alpha_du alpha_pr  ls
 200 -2.5745958e-01 8.38e-03 4.55e-01  -6.0 2.33e+01  -8.3 1.00e+00 1.00e+00h  1
 201 -2.5744852e-01 5.99e-02 1.04e+00  -6.0 6.23e+01  -8.8 1.00e+00 1.00e+00h  1
 202 -2.5738070e-01 3.46e-02 7.38e+00  -6.0 2.41e+01  -8.4 9.74e-01 1.00e+00h  1
 203 -2.5732321e-01 2.27e-02 7.08e+00  -6.0 6.86e+00  -7.0 1.00e+00 1.00e+00h  1
 204 -2.5718129e-01 4.82e-01 5.77e+01  -6.0 3.63e+01  -7.5 6.22e-01 1.00e+00h  1
 205 -2.5726501e-01 5.06e-01 6.80e+01  -6.0 6.18e+01  -8.0 5.25e-01 3.69e-01h  1
 206 -2.5733166e-01 2.19e-01 4.39e+01  -6.0 9.22e+00  -6.6 3.27e-01 1.00e+00h  1
 207 -2.5736120e-01 4.89e-04 1.32e+00  -6.0 9.92e-01  -6.2 1.00e+00 1.00e+00h  1
 208 -2.5734485e-01 6.77e-03 7.90e-01  -6.0 2.86e+00  -6.7 1.00e+00 1.00e+00h  1
 209 -2.5730348e-01 2.19e-02 1.04e+01  -6.0 1.09e+01  -7.2 1.00e+00 8.31e-01H  1
iter    objective    inf_pr   inf_du lg(mu)  ||d||  lg(rg) alpha_du alpha_pr  ls
 210 -2.5729961e-01 2.75e-03 7.59e-02  -6.0 1.20e+01  -7.7 1.00e+00 1.00e+00f  1
 211 -2.5731873e-01 2.59e-02 3.20e+00  -6.0 2.26e+01  -8.1 1.00e+00 1.00e+00h  1
 212 -2.5738901e-01 1.19e-01 1.35e+01  -6.0 5.88e+01  -8.6 1.00e+00 1.00e+00h  1
 213 -2.5743961e-01 9.57e-02 9.42e+00  -6.0 5.57e+00  -7.3 9.05e-01 1.00e+00h  1
 214 -2.5752112e-01 2.03e-01 2.14e+01  -6.0 7.20e+00  -6.9 1.00e+00 1.00e+00h  1
 215 -2.5759860e-01 1.06e-01 9.23e+00  -6.0 3.69e+00  -6.4 9.78e-01 1.00e+00h  1
 216 -2.5763650e-01 2.47e-02 2.39e+00  -6.0 1.48e+00  -6.0 1.00e+00 1.00e+00h  1
 217 -2.5780214e-01 5.19e-01 4.90e+01  -6.0 7.38e+00  -6.5 1.00e+00 1.00e+00h  1
 218 -2.5799598e-01 1.01e+00 9.74e+01  -6.0 8.34e+01  -7.0 1.32e-01 6.00e-02h  2
 219 -2.5846169e-01 1.73e+00 6.53e+01  -6.0 2.01e+01  -7.4 6.07e-01 4.64e-01H  1
iter    objective    inf_pr   inf_du lg(mu)  ||d||  lg(rg) alpha_du alpha_pr  ls
 220 -2.5862870e-01 1.05e-02 9.81e+02  -6.0 2.16e+01  -7.9 6.16e-01 1.00e+00h  1
 221 -2.5863285e-01 1.43e-02 4.86e+02  -6.0 5.32e+00  -6.6 7.72e-01 1.06e-01h  3
 222 -2.5863461e-01 1.45e-02 1.03e+03  -6.0 2.37e+01  -7.1 9.43e-01 5.81e-03h  5
 223 -2.5857939e-01 3.26e-02 1.64e+02  -6.0 7.65e+00  -7.5 1.00e+00 1.00e+00H  1
 224 -2.5865203e-01 6.03e-03 6.80e+00  -6.0 2.32e+01  -8.0 1.00e+00 1.00e+00H  1
 225 -2.5875243e-01 1.81e-01 3.61e+00  -6.0 6.98e+01  -8.5 1.00e+00 1.00e+00h  1
 226 -2.5876417e-01 1.62e-03 1.78e-01  -6.0 3.32e+00  -7.2 1.00e+00 1.00e+00h  1
 227 -2.5876927e-01 4.47e-04 4.26e-02  -6.0 1.25e+00  -6.7 1.00e+00 1.00e+00h  1
 228 -2.5879688e-01 1.87e-02 1.85e+00  -6.0 3.78e+00  -7.2 1.00e+00 1.00e+00h  1
 229 -2.5881409e-01 6.16e-03 6.63e-01  -6.0 1.66e+00  -6.8 1.00e+00 1.00e+00h  1
iter    objective    inf_pr   inf_du lg(mu)  ||d||  lg(rg) alpha_du alpha_pr  ls
 230 -2.5882214e-01 1.22e-03 1.35e-01  -6.0 7.55e-01  -6.4 1.00e+00 1.00e+00h  1
 231 -2.5886584e-01 3.99e-02 4.34e+00  -6.0 4.27e+00  -6.8 1.00e+00 1.00e+00h  1
 232 -2.5888944e-01 6.59e-03 8.71e-01  -6.0 1.89e+00  -6.4 1.00e+00 1.00e+00h  1
 233 -2.5899623e-01 9.81e-02 2.64e+01  -6.0 9.15e+00  -6.9 4.35e-01 1.00e+00H  1
 234 -2.5904401e-01 4.91e-02 3.46e+00  -6.0 5.76e+00  -7.4 1.00e+00 1.00e+00h  1
 235 -2.5906909e-01 5.78e-02 9.01e-02  -6.0 1.74e+01  -7.8 1.00e+00 1.00e+00h  1
 236 -2.5911008e-01 9.53e-02 1.90e-02  -6.0 5.01e+01  -8.3 1.00e+00 1.00e+00h  1
 237 -2.5921034e-01 8.02e-01 1.05e-01  -6.0 1.39e+02  -8.8 1.00e+00 1.00e+00h  1
 238 -2.5940616e-01 2.18e+00 2.03e-01  -6.0 3.70e+02  -9.3 1.00e+00 1.00e+00h  1
 239 -2.5954726e-01 2.42e+00 9.33e+00  -6.0 4.47e+02  -9.7 1.23e-01 1.00e+00h  1
iter    objective    inf_pr   inf_du lg(mu)  ||d||  lg(rg) alpha_du alpha_pr  ls
 240 -2.5982239e-01 1.75e+01 7.24e+00  -6.0 7.52e+03 -10.2 1.87e-01 1.42e-01h  1
 241 -2.6008441e-01 6.23e+01 6.51e+01  -6.0 2.71e+03 -10.7 1.50e-02 7.85e-01h  1
 242 -2.5998743e-01 5.81e+01 5.64e+02  -6.0 3.28e+03    -  5.61e-01 2.57e-01h  1
 243 -2.5999970e-01 4.55e+01 1.15e+03  -6.0 2.68e+03    -  2.63e-02 2.17e-01h  1
 244 -2.5984674e-01 4.60e+01 4.93e+03  -6.0 1.78e+03    -  2.50e-02 1.00e+00h  1
 245 -2.5990162e-01 9.57e+00 1.03e+03  -6.0 1.77e+02  -8.5 6.69e-02 7.95e-01h  1
 246 -2.5984889e-01 9.82e-02 3.39e+02  -6.0 7.13e+01  -8.9 6.11e-01 1.00e+00h  1
 247 -2.5979283e-01 4.96e-01 3.53e+00  -6.0 1.74e+02  -9.4 1.00e+00 1.00e+00h  1
 248 -2.5980535e-01 9.05e+00 2.49e+01  -6.0 7.41e+02  -9.9 3.68e-01 1.00e+00h  1
 249 -2.5991581e-01 7.74e+00 4.24e+01  -6.0 2.32e+03 -10.4 1.86e-01 3.19e-01H  1
iter    objective    inf_pr   inf_du lg(mu)  ||d||  lg(rg) alpha_du alpha_pr  ls
 250 -2.5999828e-01 3.84e+01 3.24e+02  -6.0 2.63e+03 -10.9 4.40e-01 1.00e+00H  1
 251 -2.6006304e-01 3.12e+01 6.15e+01  -6.0 1.79e+03  -9.5 3.67e-01 1.88e-01h  1
 252 -2.5985335e-01 1.82e+01 1.12e+05  -6.0 1.11e+03    -  5.98e-03 1.00e+00h  1
 253 -2.5983424e-01 3.67e-01 3.98e+02  -6.0 1.07e+02    -  1.00e+00 1.00e+00h  1
 254 -2.5986195e-01 4.92e-01 3.88e+02  -6.0 6.88e+02  -9.1 4.99e-02 2.64e-02h  2
 255 -2.5990867e-01 9.29e-01 3.81e+02  -6.0 6.25e+02  -7.8 2.23e-02 1.81e-02h  2
 256 -2.6021749e-01 1.82e+00 2.36e+02  -6.0 2.97e+01  -7.3 5.53e-01 4.30e-01H  1
 257 -2.6035891e-01 6.20e-02 9.84e+02  -6.0 1.24e+01  -7.8 6.62e-01 1.00e+00h  1
 258 -2.6038524e-01 1.21e-01 3.08e+02  -6.0 4.83e+01  -8.3 8.29e-01 2.03e-01h  3
 259 -2.6039355e-01 1.24e-01 8.94e+02  -6.0 1.60e+02  -8.8 1.00e+00 9.28e-02h  2
iter    objective    inf_pr   inf_du lg(mu)  ||d||  lg(rg) alpha_du alpha_pr  ls
 260 -2.6050658e-01 4.64e+00 3.10e+02  -6.0 5.28e+02  -9.3 1.00e+00 1.00e+00h  1
 261 -2.6083030e-01 5.61e+01 7.02e+02  -6.0 6.88e+03  -9.7 5.36e-02 2.56e-01h  1
 262 -2.6081071e-01 5.46e+01 8.44e+02  -6.0 2.50e+03 -10.2 7.81e-02 2.77e-02h  1
 263 -2.6065643e-01 5.20e+01 1.77e+03  -6.0 5.13e+03  -9.8 1.46e-02 4.79e-02h  1
 264 -2.6062819e-01 4.91e+01 2.14e+03  -6.0 2.63e+03    -  7.10e-03 5.65e-02h  1
 265 -2.6051025e-01 1.95e+01 3.47e+03  -6.0 1.49e+03    -  1.47e-01 6.24e-01h  1
 266 -2.6053388e-01 1.81e+01 3.21e+03  -6.0 1.83e+03    -  1.37e-02 7.35e-02h  1
 267 -2.6057733e-01 1.18e+01 2.10e+03  -6.0 7.64e+02    -  9.18e-02 3.46e-01h  1
 268 -2.6062571e-01 6.32e+00 1.12e+03  -6.0 2.78e+02    -  8.43e-01 4.67e-01h  1
 269 -2.6068724e-01 8.78e-01 1.56e+02  -6.0 1.95e+02    -  1.00e+00 8.61e-01h  1
iter    objective    inf_pr   inf_du lg(mu)  ||d||  lg(rg) alpha_du alpha_pr  ls
 270 -2.6072040e-01 2.27e+00 3.41e+01  -6.0 4.27e+02    -  1.91e-01 7.81e-01H  1
 271 -2.6075944e-01 1.34e+00 1.31e+03  -6.0 1.61e+03    -  2.07e-03 2.06e-01H  1
 272 -2.6075322e-01 1.30e+00 1.27e+03  -6.0 7.69e+03    -  3.15e-04 2.94e-02h  4
 273 -2.6066251e-01 2.49e-02 1.58e+00  -6.0 3.84e+01  -8.5 1.00e+00 1.00e+00h  1
 274 -2.6073240e-01 5.36e-03 3.26e-02  -6.0 2.16e+01  -8.9 1.00e+00 1.00e+00h  1
 275 -2.6074064e-01 3.84e-03 1.33e-02  -6.0 1.48e+01  -9.4 1.00e+00 1.00e+00h  1
 276 -2.6073906e-01 8.04e-03 1.88e-02  -6.0 5.66e+01  -9.9 1.00e+00 1.00e+00H  1
 277 -2.6073771e-01 1.03e-02 5.12e-03  -6.0 2.42e+01  -9.5 1.00e+00 1.00e+00h  1
 278 -2.6073678e-01 1.16e-01 8.35e-02  -6.0 1.20e+02  -9.9 1.00e+00 1.00e+00H  1
 279 -2.6073292e-01 3.98e-02 1.65e-02  -6.0 4.76e+01  -9.5 1.00e+00 1.00e+00h  1
iter    objective    inf_pr   inf_du lg(mu)  ||d||  lg(rg) alpha_du alpha_pr  ls
 280 -2.6074076e-01 9.74e-01 6.36e-02  -6.0 2.42e+02 -10.0 1.00e+00 1.00e+00H  1
 281 -2.6072851e-01 8.83e-02 4.81e-03  -6.0 7.16e+01  -9.6 1.00e+00 1.00e+00h  1
 282 -2.6074741e-01 1.70e+00 3.16e-02  -6.0 3.13e+02 -10.0 1.00e+00 1.00e+00H  1
 283 -2.6073734e-01 8.22e-01 1.05e+00  -6.0 8.37e+01  -9.6 1.00e+00 5.00e-01h  2
 284 -2.6076902e-01 5.88e-01 5.70e-01  -6.0 8.58e+02 -10.1 1.00e+00 1.00e+00H  1
 285 -2.6075210e-01 2.82e-01 3.22e+00  -6.0 5.18e+01  -9.7 1.00e+00 5.00e-01h  2
 286 -2.6076465e-01 6.91e-01 2.83e-01  -6.0 2.95e+02 -10.1 1.00e+00 1.00e+00H  1
 287 -2.6074622e-01 2.43e-03 1.03e-02  -6.0 1.11e+01  -9.7 1.00e+00 1.00e+00h  1
 288 -2.6074698e-01 2.12e-03 2.03e-02  -6.0 3.86e+01 -10.2 1.00e+00 1.00e+00H  1
 289 -2.6074734e-01 1.64e-04 3.42e-03  -6.0 1.99e+01  -9.8 1.00e+00 1.00e+00H  1
iter    objective    inf_pr   inf_du lg(mu)  ||d||  lg(rg) alpha_du alpha_pr  ls
 290 -2.6074759e-01 1.63e-03 9.89e+00  -6.0 1.48e+02 -10.2 1.00e+00 6.25e-02h  5
 291 -2.6074766e-01 3.76e-03 1.42e+02  -6.0 1.42e+04    -  1.29e-01 7.81e-04h  6
 292 -2.6074486e-01 3.53e-04 1.91e-02  -6.0 3.55e+01    -  1.00e+00 1.00e+00H  1
 293 -2.6074950e-01 4.21e-03 7.97e-03  -6.0 4.48e+01  -9.8 1.00e+00 1.00e+00H  1
 294 -2.6075012e-01 1.87e-02 1.44e+01  -6.0 2.49e+02 -10.3 1.00e+00 1.18e-01h  4
 295 -2.6074997e-01 2.57e-02 2.87e+01  -6.0 4.49e+02    -  1.00e+00 4.77e-02h  5
 296 -2.6074596e-01 7.85e-02 3.26e-01  -6.0 1.90e+02    -  1.00e+00 1.00e+00H  1
 297 -2.6074590e-01 8.65e-02 5.90e+01  -6.0 1.15e+03    -  1.00e+00 2.06e-02h  4
 298 -2.6074409e-01 6.13e-02 4.34e-03  -6.0 6.02e+01    -  1.00e+00 1.00e+00h  1
 299 -2.6074373e-01 1.39e-01 3.23e+00  -6.0 1.66e+02    -  1.00e+00 4.77e-01h  2
iter    objective    inf_pr   inf_du lg(mu)  ||d||  lg(rg) alpha_du alpha_pr  ls
 300 -2.6074338e-01 1.35e-02 2.12e-03  -6.0 2.84e+01    -  1.00e+00 1.00e+00h  1
 301 -2.6074338e-01 1.15e-04 6.36e-06  -6.0 2.63e+00    -  1.00e+00 1.00e+00h  1
 302 -2.6074338e-01 6.48e-09 2.30e-09  -6.0 1.95e-02    -  1.00e+00 1.00e+00h  1
 303 -2.6122811e-01 1.39e+00 8.07e+01  -7.5 2.65e+03    -  5.02e-01 2.19e-01f  1
 304 -2.6141736e-01 3.76e+00 5.86e+01  -7.5 3.37e+03    -  3.06e-02 1.19e-01h  1
 305 -2.6146084e-01 3.54e+00 8.56e+01  -7.5 2.43e+02  -9.0 2.79e-01 5.78e-02h  1
 306 -2.6188656e-01 1.27e+01 5.43e+01  -7.5 2.55e+03    -  7.01e-04 3.71e-01h  1
 307 -2.6203957e-01 9.10e+00 7.91e+01  -7.5 1.85e+03    -  5.06e-01 2.83e-01h  1
 308 -2.6205809e-01 8.81e+00 1.25e+02  -7.5 1.79e+03    -  4.95e-01 4.44e-02h  1
 309 -2.6235640e-01 3.04e+00 2.96e+01  -7.5 1.70e+03    -  8.19e-02 7.64e-01h  1
iter    objective    inf_pr   inf_du lg(mu)  ||d||  lg(rg) alpha_du alpha_pr  ls
 310 -2.6236613e-01 2.01e+00 1.42e+01  -7.5 6.33e+02    -  8.49e-01 3.42e-01h  1
 311 -2.6237679e-01 9.04e-01 7.75e+00  -7.5 4.69e+01  -9.4 1.00e+00 5.51e-01h  1
 312 -2.6241315e-01 1.00e-01 4.98e-01  -7.5 7.93e+01  -9.9 1.00e+00 9.46e-01h  1
 313 -2.6241499e-01 9.53e+00 7.56e-01  -7.5 1.44e+03    -  3.08e-02 5.00e-01h  2
 314 -2.6238453e-01 3.89e-03 9.50e+00  -7.5 1.13e+01  -6.8 1.37e-01 1.00e+00h  1
 315 -2.6237904e-01 1.83e-04 2.31e+00  -7.5 3.94e+00  -6.4 7.94e-01 1.00e+00h  1
 316 -2.6238486e-01 1.76e-04 5.55e-02  -7.5 4.30e+00  -6.8 1.00e+00 1.00e+00h  1
 317 -2.6239177e-01 1.51e-01 5.91e-01  -7.5 3.50e+02    -  6.35e-01 1.42e-01h  3
 318 -2.6239248e-01 1.73e-01 1.21e+00  -7.5 6.47e+02    -  1.00e+00 2.66e-02h  4
 319 -2.6239358e-01 1.78e-01 1.27e+00  -7.5 5.47e+02    -  4.34e-01 3.94e-02h  4
iter    objective    inf_pr   inf_du lg(mu)  ||d||  lg(rg) alpha_du alpha_pr  ls
 320 -2.6239377e-01 1.77e-01 1.28e+00  -7.5 3.05e+03    -  1.98e-01 6.99e-03h  7
 321 -2.6239379e-01 1.77e-01 1.29e+00  -7.5 6.32e+04    -  5.68e-03 3.59e-04h  8
 322 -2.6240161e-01 3.55e-04 1.03e-02  -7.5 6.16e+00  -7.3 1.00e+00 1.00e+00h  1
 323 -2.6240330e-01 7.78e-01 1.56e-01  -7.5 8.79e+02    -  4.60e-01 1.23e-01h  1
 324 -2.6240949e-01 3.49e-01 1.31e-01  -7.5 1.12e+02  -7.8 5.49e-04 9.03e-01h  1
 325 -2.6240510e-01 1.08e-04 2.81e-03  -7.5 3.39e+00  -8.3 1.00e+00 1.00e+00h  1
 326 -2.6240766e-01 2.04e-03 8.81e-04  -7.5 1.04e+01  -8.7 1.00e+00 1.00e+00h  1
 327 -2.6240907e-01 1.62e-02 3.99e-04  -7.5 2.94e+01  -9.2 1.00e+00 1.00e+00h  1
 328 -2.6241044e-01 1.13e-01 1.20e-03  -7.5 7.76e+01  -9.7 1.00e+00 1.00e+00h  1
 329 -2.6241240e-01 5.05e-01 4.66e-03  -7.5 1.64e+02 -10.2 1.00e+00 1.00e+00h  1
iter    objective    inf_pr   inf_du lg(mu)  ||d||  lg(rg) alpha_du alpha_pr  ls
 330 -2.6241423e-01 7.42e-01 8.14e-03  -7.5 2.01e+02 -10.7 1.00e+00 1.00e+00h  1
 331 -2.6241439e-01 1.17e+00 4.91e-02  -7.5 1.70e+02 -11.1 6.76e-01 1.00e+00h  1
 332 -2.6241403e-01 3.06e-02 2.09e-03  -7.5 2.94e+02 -11.6 1.00e+00 1.00e+00H  1
 333 -2.6241424e-01 6.24e+00 1.33e-01  -7.5 5.37e+03    -  1.85e-01 1.33e-01h  3
 334 -2.6241455e-01 4.91e+00 6.95e-03  -7.5 6.21e+02 -12.1 1.00e+00 1.00e+00h  1
 335 -2.6241603e-01 8.99e+00 1.87e+00  -7.5 2.37e+03 -12.6 3.84e-01 1.00e+00H  1
 336 -2.6241610e-01 6.56e-01 2.46e-02  -7.5 2.05e+02    -  1.00e+00 1.00e+00h  1
 337 -2.6241611e-01 2.07e-02 1.05e-02  -7.5 1.33e+01 -10.3 9.44e-01 1.00e+00h  1
 338 -2.6241641e-01 3.77e+00 9.53e-03  -7.5 5.11e+02    -  1.00e+00 1.00e+00h  1
 339 -2.6241643e-01 1.58e-01 1.96e-02  -7.5 2.53e+01 -10.8 5.82e-01 1.00e+00h  1
iter    objective    inf_pr   inf_du lg(mu)  ||d||  lg(rg) alpha_du alpha_pr  ls
 340 -2.6241648e-01 2.56e-01 2.96e-04  -7.5 8.60e+01    -  1.00e+00 1.00e+00h  1
 341 -2.6241657e-01 5.87e-01 9.21e-03  -7.5 1.50e+02    -  8.99e-01 1.00e+00h  1
 342 -2.6241686e-01 3.51e+00 9.38e-01  -7.5 1.87e+03    -  1.00e+00 2.50e-01h  3
 343 -2.6241731e-01 2.19e+00 1.76e-02  -7.5 6.19e+02    -  1.00e+00 1.00e+00H  1
 344 -2.6241727e-01 5.70e-02 1.31e-03  -7.5 6.24e+01    -  1.00e+00 1.00e+00h  1
 345 -2.6241727e-01 7.28e-06 8.11e-08  -7.5 7.38e-01    -  1.00e+00 1.00e+00h  1
 346 -2.6241727e-01 2.83e-10 5.24e-13  -7.5 1.13e-03    -  1.00e+00 1.00e+00h  1
 347 -2.6241977e-01 2.99e+00 3.00e+00  -9.0 1.70e+03    -  5.24e-01 2.58e-01h  1
 348 -2.6242184e-01 6.18e+01 1.61e+00  -9.0 5.71e+03    -  2.68e-01 3.41e-01h  1
 349 -2.6242274e-01 4.38e+01 7.46e-01  -9.0 1.56e+03    -  3.78e-01 4.23e-01h  1
iter    objective    inf_pr   inf_du lg(mu)  ||d||  lg(rg) alpha_du alpha_pr  ls
 350 -2.6242315e-01 3.66e+01 4.70e-01  -9.0 1.85e+03    -  2.54e-01 2.81e-01h  1
 351 -2.6242423e-01 1.00e+02 1.39e+01  -9.0 4.56e+03    -  3.28e-02 6.49e-01h  1
 352 -2.6242529e-01 4.83e+01 3.88e+01  -9.0 1.82e+03    -  9.40e-04 1.00e+00h  1
 353 -2.6242551e-01 9.27e+00 7.58e+00  -9.0 7.77e+02    -  1.15e-01 1.00e+00h  1
 354 -2.6242585e-01 1.79e+01 9.41e-01  -9.0 1.12e+03    -  4.28e-01 1.00e+00h  1
 355 -2.6242597e-01 8.59e+00 2.18e-01  -9.0 6.71e+02    -  7.60e-01 9.19e-01h  1
 356 -2.6242598e-01 8.58e+00 1.85e-01  -9.0 8.06e+03    -  2.03e-01 5.19e-03h  5
 357 -2.6242601e-01 8.55e+00 1.24e-01  -9.0 2.23e+03    -  9.12e-01 7.01e-02h  3
 358 -2.6242610e-01 8.75e+00 4.65e-02  -9.0 1.19e+03    -  9.92e-01 3.57e-01H  1
 359 -2.6242604e-01 1.42e+00 5.26e-02  -9.0 3.11e+02    -  4.77e-01 1.00e+00h  1
iter    objective    inf_pr   inf_du lg(mu)  ||d||  lg(rg) alpha_du alpha_pr  ls
 360 -2.6242637e-01 3.60e+01 4.23e-02  -9.0 2.00e+03    -  9.89e-02 7.87e-01h  1
 361 -2.6242632e-01 2.80e+01 3.46e-02  -9.0 1.06e+03    -  1.80e-01 2.50e-01h  3
 362 -2.6242634e-01 2.80e+01 3.29e-02  -9.0 3.27e+04    -  5.04e-02 2.97e-03h  5
 363 -2.6242638e-01 2.83e+01 4.31e-02  -9.0 1.50e+04    -  1.02e-01 1.29e-02h  4
 364 -2.6242640e-01 1.41e-01 2.90e-02  -9.0 6.71e+01 -11.3 2.60e-01 1.00e+00h  1
 365 -2.6242692e-01 3.16e+01 1.64e-02  -9.0 2.38e+03    -  1.00e+00 1.00e+00H  1
 366 -2.6242695e-01 3.02e+01 1.51e-02  -9.0 3.12e+03    -  6.18e-02 8.57e-02h  3
 367 -2.6242694e-01 1.36e-01 1.38e-04  -9.0 5.78e+01 -11.8 1.00e+00 1.00e+00h  1
 368 -2.6242697e-01 5.03e-01 9.74e-05  -9.0 1.68e+02 -12.2 1.00e+00 1.00e+00h  1
 369 -2.6242702e-01 3.38e+00 8.37e-04  -9.0 4.35e+02 -12.7 1.00e+00 1.00e+00h  1
iter    objective    inf_pr   inf_du lg(mu)  ||d||  lg(rg) alpha_du alpha_pr  ls
 370 -2.6242707e-01 1.54e+01 2.01e-02  -9.0 1.13e+03 -13.2 7.46e-02 1.00e+00H  1
 371 -2.6242703e-01 3.25e+00 1.65e-02  -9.0 3.96e+02    -  3.83e-01 1.00e+00h  1
 372 -2.6242701e-01 1.35e+00 3.49e-04  -9.0 1.09e+02    -  1.00e+00 1.00e+00h  1
 373 -2.6242706e-01 1.33e+00 7.81e-03  -9.0 3.52e+02    -  2.50e-01 1.00e+00H  1
 374 -2.6242715e-01 1.38e+01 1.94e-02  -9.0 3.42e+03    -  4.60e-01 2.38e-01h  2
 375 -2.6242719e-01 1.40e+01 3.76e-02  -9.0 1.93e+03    -  1.00e+00 1.94e-01h  3
 376 -2.6242729e-01 3.87e+00 3.28e-03  -9.0 9.42e+02    -  1.00e+00 1.00e+00H  1
 377 -2.6242729e-01 1.79e+00 1.28e-03  -9.0 2.82e+02    -  1.00e+00 1.00e+00h  1
 378 -2.6242730e-01 2.12e-01 7.21e-05  -9.0 9.54e+01    -  1.00e+00 1.00e+00h  1
 379 -2.6242730e-01 5.03e-06 1.47e-08  -9.0 3.69e-01    -  1.00e+00 1.00e+00h  1
iter    objective    inf_pr   inf_du lg(mu)  ||d||  lg(rg) alpha_du alpha_pr  ls
 380 -2.6242730e-01 5.17e-09 1.47e-12  -9.0 1.51e-02    -  1.00e+00 1.00e+00h  1

Number of Iterations....: 380

                                   (scaled)                 (unscaled)
Objective...............:  -2.6242729589460756e-01   -2.6242729589460756e-01
Dual infeasibility......:   1.4749080914893410e-12    1.4749080914893410e-12
Constraint violation....:   2.8997673342895975e-09    5.1659299060702324e-09
Complementarity.........:   9.0909092287319270e-10    9.0909092287319270e-10
Overall NLP error.......:   2.8997673342895975e-09    5.1659299060702324e-09


Number of objective function evaluations             = 698
Number of objective gradient evaluations             = 381
Number of equality constraint evaluations            = 703
Number of inequality constraint evaluations          = 699
Number of equality constraint Jacobian evaluations   = 382
Number of inequality constraint Jacobian evaluations = 382
Number of Lagrangian Hessian evaluations             = 380
Total CPU secs in IPOPT (w/o function evaluations)   =    891.153
Total CPU secs in NLP function evaluations           =     14.699

EXIT: Optimal Solution Found.
